c This is a CNF SAT formula in the DIMACS CNF format,
c produced with the bc2cnf translator by Tommi Junttila;
c see http://users.ics.aalto.fi/tjunttil/circuits/index.html
c S31 <-> 33
c S30 <-> 34
c S29 <-> 35
c S28 <-> 36
c S27 <-> 37
c S26 <-> 38
c S25 <-> 39
c S24 <-> 40
c S23 <-> 41
c S22 <-> 42
c S21 <-> 43
c S20 <-> 44
c S19 <-> 45
c S18 <-> 46
c S17 <-> 47
c S16 <-> 48
c S15 <-> 49
c S14 <-> 50
c S13 <-> 51
c S12 <-> 52
c S11 <-> 53
c S10 <-> 54
c S9 <-> 55
c S8 <-> 56
c S7 <-> 57
c S6 <-> 58
c S5 <-> 59
c S4 <-> 60
c S3 <-> 61
c S2 <-> 62
c S1 <-> 63
c S0 <-> 64
c C32 <-> 65
c A31 <-> 69
c C31 <-> 70
c A30 <-> 74
c C30 <-> 75
c A29 <-> 79
c C29 <-> 80
c A28 <-> 84
c C28 <-> 85
c A27 <-> 89
c C27 <-> 90
c A26 <-> 94
c C26 <-> 95
c A25 <-> 99
c C25 <-> 100
c A24 <-> 104
c C24 <-> 105
c A23 <-> 109
c C23 <-> 110
c A22 <-> 114
c C22 <-> 115
c A21 <-> 119
c C21 <-> 120
c A20 <-> 124
c C20 <-> 125
c A19 <-> 129
c C19 <-> 130
c A18 <-> 134
c C18 <-> 135
c A17 <-> 139
c C17 <-> 140
c A16 <-> 144
c C16 <-> 145
c A15 <-> 149
c C15 <-> 150
c A14 <-> 154
c C14 <-> 155
c A13 <-> 159
c C13 <-> 160
c A12 <-> 164
c C12 <-> 165
c A11 <-> 169
c C11 <-> 170
c A10 <-> 174
c C10 <-> 175
c A9 <-> 179
c C9 <-> 180
c A8 <-> 184
c C8 <-> 185
c A7 <-> 189
c C7 <-> 190
c A6 <-> 194
c C6 <-> 195
c A5 <-> 199
c C5 <-> 200
c A4 <-> 204
c C4 <-> 205
c A3 <-> 209
c C3 <-> 210
c A2 <-> 214
c C2 <-> 215
c A1 <-> 219
c C1 <-> 220
c A0 <-> 224
c B31 <-> 225
c Bin31 <-> 226
c B30 <-> 227
c Bin30 <-> 228
c B29 <-> 229
c Bin29 <-> 230
c B28 <-> 231
c Bin28 <-> 232
c B27 <-> 233
c Bin27 <-> 234
c B26 <-> 235
c Bin26 <-> 236
c B25 <-> 237
c Bin25 <-> 238
c B24 <-> 239
c Bin24 <-> 240
c B23 <-> 241
c Bin23 <-> 242
c B22 <-> 243
c Bin22 <-> 244
c B21 <-> 245
c Bin21 <-> 246
c B20 <-> 247
c Bin20 <-> 248
c B19 <-> 249
c Bin19 <-> 250
c B18 <-> 251
c Bin18 <-> 252
c B17 <-> 253
c Bin17 <-> 254
c B16 <-> 255
c Bin16 <-> 256
c B15 <-> 257
c Bin15 <-> 258
c B14 <-> 259
c Bin14 <-> 260
c B13 <-> 261
c Bin13 <-> 262
c B12 <-> 263
c Bin12 <-> 264
c B11 <-> 265
c Bin11 <-> 266
c B10 <-> 267
c Bin10 <-> 268
c B9 <-> 269
c Bin9 <-> 270
c B8 <-> 271
c Bin8 <-> 272
c B7 <-> 273
c Bin7 <-> 274
c B6 <-> 275
c Bin6 <-> 276
c B5 <-> 277
c Bin5 <-> 278
c B4 <-> 279
c Bin4 <-> 280
c B3 <-> 281
c Bin3 <-> 282
c B2 <-> 283
c Bin2 <-> 284
c B1 <-> 285
c Bin1 <-> 286
c B0 <-> 287
c C0 <-> 288
c OP0 <-> 288
c Bin0 <-> 289
p cnf 289 800
1 70 -69 0
1 -70 69 0
-1 70 69 0
-1 -70 -69 0
2 75 -74 0
2 -75 74 0
-2 75 74 0
-2 -75 -74 0
3 80 -79 0
3 -80 79 0
-3 80 79 0
-3 -80 -79 0
4 85 -84 0
4 -85 84 0
-4 85 84 0
-4 -85 -84 0
5 90 -89 0
5 -90 89 0
-5 90 89 0
-5 -90 -89 0
6 95 -94 0
6 -95 94 0
-6 95 94 0
-6 -95 -94 0
7 100 -99 0
7 -100 99 0
-7 100 99 0
-7 -100 -99 0
8 105 -104 0
8 -105 104 0
-8 105 104 0
-8 -105 -104 0
9 110 -109 0
9 -110 109 0
-9 110 109 0
-9 -110 -109 0
10 115 -114 0
10 -115 114 0
-10 115 114 0
-10 -115 -114 0
11 120 -119 0
11 -120 119 0
-11 120 119 0
-11 -120 -119 0
12 125 -124 0
12 -125 124 0
-12 125 124 0
-12 -125 -124 0
13 130 -129 0
13 -130 129 0
-13 130 129 0
-13 -130 -129 0
14 135 -134 0
14 -135 134 0
-14 135 134 0
-14 -135 -134 0
15 140 -139 0
15 -140 139 0
-15 140 139 0
-15 -140 -139 0
16 145 -144 0
16 -145 144 0
-16 145 144 0
-16 -145 -144 0
17 150 -149 0
17 -150 149 0
-17 150 149 0
-17 -150 -149 0
18 155 -154 0
18 -155 154 0
-18 155 154 0
-18 -155 -154 0
19 160 -159 0
19 -160 159 0
-19 160 159 0
-19 -160 -159 0
20 165 -164 0
20 -165 164 0
-20 165 164 0
-20 -165 -164 0
21 170 -169 0
21 -170 169 0
-21 170 169 0
-21 -170 -169 0
22 175 -174 0
22 -175 174 0
-22 175 174 0
-22 -175 -174 0
23 180 -179 0
23 -180 179 0
-23 180 179 0
-23 -180 -179 0
24 185 -184 0
24 -185 184 0
-24 185 184 0
-24 -185 -184 0
25 190 -189 0
25 -190 189 0
-25 190 189 0
-25 -190 -189 0
26 195 -194 0
26 -195 194 0
-26 195 194 0
-26 -195 -194 0
27 200 -199 0
27 -200 199 0
-27 200 199 0
-27 -200 -199 0
28 205 -204 0
28 -205 204 0
-28 205 204 0
-28 -205 -204 0
29 210 -209 0
29 -210 209 0
-29 210 209 0
-29 -210 -209 0
30 215 -214 0
30 -215 214 0
-30 215 214 0
-30 -215 -214 0
31 220 -219 0
31 -220 219 0
-31 220 219 0
-31 -220 -219 0
32 288 -224 0
32 -288 224 0
-32 288 224 0
-32 -288 -224 0
33 225 -1 0
33 -225 1 0
-33 225 1 0
-33 -225 -1 0
34 227 -2 0
34 -227 2 0
-34 227 2 0
-34 -227 -2 0
35 229 -3 0
35 -229 3 0
-35 229 3 0
-35 -229 -3 0
36 231 -4 0
36 -231 4 0
-36 231 4 0
-36 -231 -4 0
37 233 -5 0
37 -233 5 0
-37 233 5 0
-37 -233 -5 0
38 235 -6 0
38 -235 6 0
-38 235 6 0
-38 -235 -6 0
39 237 -7 0
39 -237 7 0
-39 237 7 0
-39 -237 -7 0
40 239 -8 0
40 -239 8 0
-40 239 8 0
-40 -239 -8 0
41 241 -9 0
41 -241 9 0
-41 241 9 0
-41 -241 -9 0
42 243 -10 0
42 -243 10 0
-42 243 10 0
-42 -243 -10 0
43 245 -11 0
43 -245 11 0
-43 245 11 0
-43 -245 -11 0
44 247 -12 0
44 -247 12 0
-44 247 12 0
-44 -247 -12 0
45 249 -13 0
45 -249 13 0
-45 249 13 0
-45 -249 -13 0
46 251 -14 0
46 -251 14 0
-46 251 14 0
-46 -251 -14 0
47 253 -15 0
47 -253 15 0
-47 253 15 0
-47 -253 -15 0
48 255 -16 0
48 -255 16 0
-48 255 16 0
-48 -255 -16 0
49 257 -17 0
49 -257 17 0
-49 257 17 0
-49 -257 -17 0
50 259 -18 0
50 -259 18 0
-50 259 18 0
-50 -259 -18 0
51 261 -19 0
51 -261 19 0
-51 261 19 0
-51 -261 -19 0
52 263 -20 0
52 -263 20 0
-52 263 20 0
-52 -263 -20 0
53 265 -21 0
53 -265 21 0
-53 265 21 0
-53 -265 -21 0
54 267 -22 0
54 -267 22 0
-54 267 22 0
-54 -267 -22 0
55 269 -23 0
55 -269 23 0
-55 269 23 0
-55 -269 -23 0
56 271 -24 0
56 -271 24 0
-56 271 24 0
-56 -271 -24 0
57 273 -25 0
57 -273 25 0
-57 273 25 0
-57 -273 -25 0
58 275 -26 0
58 -275 26 0
-58 275 26 0
-58 -275 -26 0
59 277 -27 0
59 -277 27 0
-59 277 27 0
-59 -277 -27 0
60 279 -28 0
60 -279 28 0
-60 279 28 0
-60 -279 -28 0
61 281 -29 0
61 -281 29 0
-61 281 29 0
-61 -281 -29 0
62 283 -30 0
62 -283 30 0
-62 283 30 0
-62 -283 -30 0
63 285 -31 0
63 -285 31 0
-63 285 31 0
-63 -285 -31 0
64 287 -32 0
64 -287 32 0
-64 287 32 0
-64 -287 -32 0
65 -66 0
65 -67 0
65 -68 0
-65 68 67 66 0
-66 70 0
-66 225 0
66 -225 -70 0
-67 69 0
-67 70 0
67 -70 -69 0
-68 69 0
-68 225 0
68 -225 -69 0
70 -71 0
70 -72 0
70 -73 0
-70 73 72 71 0
-71 75 0
-71 227 0
71 -227 -75 0
-72 74 0
-72 75 0
72 -75 -74 0
-73 74 0
-73 227 0
73 -227 -74 0
75 -76 0
75 -77 0
75 -78 0
-75 78 77 76 0
-76 80 0
-76 229 0
76 -229 -80 0
-77 79 0
-77 80 0
77 -80 -79 0
-78 79 0
-78 229 0
78 -229 -79 0
80 -81 0
80 -82 0
80 -83 0
-80 83 82 81 0
-81 85 0
-81 231 0
81 -231 -85 0
-82 84 0
-82 85 0
82 -85 -84 0
-83 84 0
-83 231 0
83 -231 -84 0
85 -86 0
85 -87 0
85 -88 0
-85 88 87 86 0
-86 90 0
-86 233 0
86 -233 -90 0
-87 89 0
-87 90 0
87 -90 -89 0
-88 89 0
-88 233 0
88 -233 -89 0
90 -91 0
90 -92 0
90 -93 0
-90 93 92 91 0
-91 95 0
-91 235 0
91 -235 -95 0
-92 94 0
-92 95 0
92 -95 -94 0
-93 94 0
-93 235 0
93 -235 -94 0
95 -96 0
95 -97 0
95 -98 0
-95 98 97 96 0
-96 100 0
-96 237 0
96 -237 -100 0
-97 99 0
-97 100 0
97 -100 -99 0
-98 99 0
-98 237 0
98 -237 -99 0
100 -101 0
100 -102 0
100 -103 0
-100 103 102 101 0
-101 105 0
-101 239 0
101 -239 -105 0
-102 104 0
-102 105 0
102 -105 -104 0
-103 104 0
-103 239 0
103 -239 -104 0
105 -106 0
105 -107 0
105 -108 0
-105 108 107 106 0
-106 110 0
-106 241 0
106 -241 -110 0
-107 109 0
-107 110 0
107 -110 -109 0
-108 109 0
-108 241 0
108 -241 -109 0
110 -111 0
110 -112 0
110 -113 0
-110 113 112 111 0
-111 115 0
-111 243 0
111 -243 -115 0
-112 114 0
-112 115 0
112 -115 -114 0
-113 114 0
-113 243 0
113 -243 -114 0
115 -116 0
115 -117 0
115 -118 0
-115 118 117 116 0
-116 120 0
-116 245 0
116 -245 -120 0
-117 119 0
-117 120 0
117 -120 -119 0
-118 119 0
-118 245 0
118 -245 -119 0
120 -121 0
120 -122 0
120 -123 0
-120 123 122 121 0
-121 125 0
-121 247 0
121 -247 -125 0
-122 124 0
-122 125 0
122 -125 -124 0
-123 124 0
-123 247 0
123 -247 -124 0
125 -126 0
125 -127 0
125 -128 0
-125 128 127 126 0
-126 130 0
-126 249 0
126 -249 -130 0
-127 129 0
-127 130 0
127 -130 -129 0
-128 129 0
-128 249 0
128 -249 -129 0
130 -131 0
130 -132 0
130 -133 0
-130 133 132 131 0
-131 135 0
-131 251 0
131 -251 -135 0
-132 134 0
-132 135 0
132 -135 -134 0
-133 134 0
-133 251 0
133 -251 -134 0
135 -136 0
135 -137 0
135 -138 0
-135 138 137 136 0
-136 140 0
-136 253 0
136 -253 -140 0
-137 139 0
-137 140 0
137 -140 -139 0
-138 139 0
-138 253 0
138 -253 -139 0
140 -141 0
140 -142 0
140 -143 0
-140 143 142 141 0
-141 145 0
-141 255 0
141 -255 -145 0
-142 144 0
-142 145 0
142 -145 -144 0
-143 144 0
-143 255 0
143 -255 -144 0
145 -146 0
145 -147 0
145 -148 0
-145 148 147 146 0
-146 150 0
-146 257 0
146 -257 -150 0
-147 149 0
-147 150 0
147 -150 -149 0
-148 149 0
-148 257 0
148 -257 -149 0
150 -151 0
150 -152 0
150 -153 0
-150 153 152 151 0
-151 155 0
-151 259 0
151 -259 -155 0
-152 154 0
-152 155 0
152 -155 -154 0
-153 154 0
-153 259 0
153 -259 -154 0
155 -156 0
155 -157 0
155 -158 0
-155 158 157 156 0
-156 160 0
-156 261 0
156 -261 -160 0
-157 159 0
-157 160 0
157 -160 -159 0
-158 159 0
-158 261 0
158 -261 -159 0
160 -161 0
160 -162 0
160 -163 0
-160 163 162 161 0
-161 165 0
-161 263 0
161 -263 -165 0
-162 164 0
-162 165 0
162 -165 -164 0
-163 164 0
-163 263 0
163 -263 -164 0
165 -166 0
165 -167 0
165 -168 0
-165 168 167 166 0
-166 170 0
-166 265 0
166 -265 -170 0
-167 169 0
-167 170 0
167 -170 -169 0
-168 169 0
-168 265 0
168 -265 -169 0
170 -171 0
170 -172 0
170 -173 0
-170 173 172 171 0
-171 175 0
-171 267 0
171 -267 -175 0
-172 174 0
-172 175 0
172 -175 -174 0
-173 174 0
-173 267 0
173 -267 -174 0
175 -176 0
175 -177 0
175 -178 0
-175 178 177 176 0
-176 180 0
-176 269 0
176 -269 -180 0
-177 179 0
-177 180 0
177 -180 -179 0
-178 179 0
-178 269 0
178 -269 -179 0
180 -181 0
180 -182 0
180 -183 0
-180 183 182 181 0
-181 185 0
-181 271 0
181 -271 -185 0
-182 184 0
-182 185 0
182 -185 -184 0
-183 184 0
-183 271 0
183 -271 -184 0
185 -186 0
185 -187 0
185 -188 0
-185 188 187 186 0
-186 190 0
-186 273 0
186 -273 -190 0
-187 189 0
-187 190 0
187 -190 -189 0
-188 189 0
-188 273 0
188 -273 -189 0
190 -191 0
190 -192 0
190 -193 0
-190 193 192 191 0
-191 195 0
-191 275 0
191 -275 -195 0
-192 194 0
-192 195 0
192 -195 -194 0
-193 194 0
-193 275 0
193 -275 -194 0
195 -196 0
195 -197 0
195 -198 0
-195 198 197 196 0
-196 200 0
-196 277 0
196 -277 -200 0
-197 199 0
-197 200 0
197 -200 -199 0
-198 199 0
-198 277 0
198 -277 -199 0
200 -201 0
200 -202 0
200 -203 0
-200 203 202 201 0
-201 205 0
-201 279 0
201 -279 -205 0
-202 204 0
-202 205 0
202 -205 -204 0
-203 204 0
-203 279 0
203 -279 -204 0
205 -206 0
205 -207 0
205 -208 0
-205 208 207 206 0
-206 210 0
-206 281 0
206 -281 -210 0
-207 209 0
-207 210 0
207 -210 -209 0
-208 209 0
-208 281 0
208 -281 -209 0
210 -211 0
210 -212 0
210 -213 0
-210 213 212 211 0
-211 215 0
-211 283 0
211 -283 -215 0
-212 214 0
-212 215 0
212 -215 -214 0
-213 214 0
-213 283 0
213 -283 -214 0
215 -216 0
215 -217 0
215 -218 0
-215 218 217 216 0
-216 220 0
-216 285 0
216 -285 -220 0
-217 219 0
-217 220 0
217 -220 -219 0
-218 219 0
-218 285 0
218 -285 -219 0
220 -221 0
220 -222 0
220 -223 0
-220 223 222 221 0
-221 287 0
-221 288 0
221 -288 -287 0
-222 224 0
-222 288 0
222 -288 -224 0
-223 224 0
-223 287 0
223 -287 -224 0
225 288 -226 0
225 -288 226 0
-225 288 226 0
-225 -288 -226 0
227 288 -228 0
227 -288 228 0
-227 288 228 0
-227 -288 -228 0
229 288 -230 0
229 -288 230 0
-229 288 230 0
-229 -288 -230 0
231 288 -232 0
231 -288 232 0
-231 288 232 0
-231 -288 -232 0
233 288 -234 0
233 -288 234 0
-233 288 234 0
-233 -288 -234 0
235 288 -236 0
235 -288 236 0
-235 288 236 0
-235 -288 -236 0
237 288 -238 0
237 -288 238 0
-237 288 238 0
-237 -288 -238 0
239 288 -240 0
239 -288 240 0
-239 288 240 0
-239 -288 -240 0
241 288 -242 0
241 -288 242 0
-241 288 242 0
-241 -288 -242 0
243 288 -244 0
243 -288 244 0
-243 288 244 0
-243 -288 -244 0
245 288 -246 0
245 -288 246 0
-245 288 246 0
-245 -288 -246 0
247 288 -248 0
247 -288 248 0
-247 288 248 0
-247 -288 -248 0
249 288 -250 0
249 -288 250 0
-249 288 250 0
-249 -288 -250 0
251 288 -252 0
251 -288 252 0
-251 288 252 0
-251 -288 -252 0
253 288 -254 0
253 -288 254 0
-253 288 254 0
-253 -288 -254 0
255 288 -256 0
255 -288 256 0
-255 288 256 0
-255 -288 -256 0
257 288 -258 0
257 -288 258 0
-257 288 258 0
-257 -288 -258 0
259 288 -260 0
259 -288 260 0
-259 288 260 0
-259 -288 -260 0
261 288 -262 0
261 -288 262 0
-261 288 262 0
-261 -288 -262 0
263 288 -264 0
263 -288 264 0
-263 288 264 0
-263 -288 -264 0
265 288 -266 0
265 -288 266 0
-265 288 266 0
-265 -288 -266 0
267 288 -268 0
267 -288 268 0
-267 288 268 0
-267 -288 -268 0
269 288 -270 0
269 -288 270 0
-269 288 270 0
-269 -288 -270 0
271 288 -272 0
271 -288 272 0
-271 288 272 0
-271 -288 -272 0
273 288 -274 0
273 -288 274 0
-273 288 274 0
-273 -288 -274 0
275 288 -276 0
275 -288 276 0
-275 288 276 0
-275 -288 -276 0
277 288 -278 0
277 -288 278 0
-277 288 278 0
-277 -288 -278 0
279 288 -280 0
279 -288 280 0
-279 288 280 0
-279 -288 -280 0
281 288 -282 0
281 -288 282 0
-281 288 282 0
-281 -288 -282 0
283 288 -284 0
283 -288 284 0
-283 288 284 0
-283 -288 -284 0
285 288 -286 0
285 -288 286 0
-285 288 286 0
-285 -288 -286 0
287 289 -288 0
287 -289 288 0
-287 289 288 0
-287 -289 -288 0